NAME : 0
COMMENT : CVRP Instance
TYPE : CVRP
DIMENSION : 484
EDGE_WEIGHT_TYPE : EUC_2D
CAPACITY : 1000
NODE_COORD_SECTION
1	0.0	-21.0
2	-1.0	-20.0
3	1.0	-20.0
4	-2.0	-19.0
5	0.0	-19.0
6	2.0	-19.0
7	-3.0	-18.0
8	-1.0	-18.0
9	1.0	-18.0
10	3.0	-18.0
11	-4.0	-17.0
12	-2.0	-17.0
13	0.0	-17.0
14	2.0	-17.0
15	4.0	-17.0
16	-5.0	-16.0
17	-3.0	-16.0
18	-1.0	-16.0
19	1.0	-16.0
20	3.0	-16.0
21	5.0	-16.0
22	-6.0	-15.0
23	-4.0	-15.0
24	-2.0	-15.0
25	0.0	-15.0
26	2.0	-15.0
27	4.0	-15.0
28	6.0	-15.0
29	-7.0	-14.0
30	-5.0	-14.0
31	-3.0	-14.0
32	-1.0	-14.0
33	1.0	-14.0
34	3.0	-14.0
35	5.0	-14.0
36	7.0	-14.0
37	-8.0	-13.0
38	-6.0	-13.0
39	-4.0	-13.0
40	-2.0	-13.0
41	0.0	-13.0
42	2.0	-13.0
43	4.0	-13.0
44	6.0	-13.0
45	8.0	-13.0
46	-9.0	-12.0
47	-7.0	-12.0
48	-5.0	-12.0
49	-3.0	-12.0
50	-1.0	-12.0
51	1.0	-12.0
52	3.0	-12.0
53	5.0	-12.0
54	7.0	-12.0
55	9.0	-12.0
56	-10.0	-11.0
57	-8.0	-11.0
58	-6.0	-11.0
59	-4.0	-11.0
60	-2.0	-11.0
61	0.0	-11.0
62	2.0	-11.0
63	4.0	-11.0
64	6.0	-11.0
65	8.0	-11.0
66	10.0	-11.0
67	-11.0	-10.0
68	-9.0	-10.0
69	-7.0	-10.0
70	-5.0	-10.0
71	-3.0	-10.0
72	-1.0	-10.0
73	1.0	-10.0
74	3.0	-10.0
75	5.0	-10.0
76	7.0	-10.0
77	9.0	-10.0
78	11.0	-10.0
79	-12.0	-9.0
80	-10.0	-9.0
81	-8.0	-9.0
82	-6.0	-9.0
83	-4.0	-9.0
84	-2.0	-9.0
85	0.0	-9.0
86	2.0	-9.0
87	4.0	-9.0
88	6.0	-9.0
89	8.0	-9.0
90	10.0	-9.0
91	12.0	-9.0
92	-13.0	-8.0
93	-11.0	-8.0
94	-9.0	-8.0
95	-7.0	-8.0
96	-5.0	-8.0
97	-3.0	-8.0
98	-1.0	-8.0
99	1.0	-8.0
100	3.0	-8.0
101	5.0	-8.0
102	7.0	-8.0
103	9.0	-8.0
104	11.0	-8.0
105	13.0	-8.0
106	-14.0	-7.0
107	-12.0	-7.0
108	-10.0	-7.0
109	-8.0	-7.0
110	-6.0	-7.0
111	-4.0	-7.0
112	-2.0	-7.0
113	0.0	-7.0
114	2.0	-7.0
115	4.0	-7.0
116	6.0	-7.0
117	8.0	-7.0
118	10.0	-7.0
119	12.0	-7.0
120	14.0	-7.0
121	-15.0	-6.0
122	-13.0	-6.0
123	-11.0	-6.0
124	-9.0	-6.0
125	-7.0	-6.0
126	-5.0	-6.0
127	-3.0	-6.0
128	-1.0	-6.0
129	1.0	-6.0
130	3.0	-6.0
131	5.0	-6.0
132	7.0	-6.0
133	9.0	-6.0
134	11.0	-6.0
135	13.0	-6.0
136	15.0	-6.0
137	-16.0	-5.0
138	-14.0	-5.0
139	-12.0	-5.0
140	-10.0	-5.0
141	-8.0	-5.0
142	-6.0	-5.0
143	-4.0	-5.0
144	-2.0	-5.0
145	0.0	-5.0
146	2.0	-5.0
147	4.0	-5.0
148	6.0	-5.0
149	8.0	-5.0
150	10.0	-5.0
151	12.0	-5.0
152	14.0	-5.0
153	16.0	-5.0
154	-17.0	-4.0
155	-15.0	-4.0
156	-13.0	-4.0
157	-11.0	-4.0
158	-9.0	-4.0
159	-7.0	-4.0
160	-5.0	-4.0
161	-3.0	-4.0
162	-1.0	-4.0
163	1.0	-4.0
164	3.0	-4.0
165	5.0	-4.0
166	7.0	-4.0
167	9.0	-4.0
168	11.0	-4.0
169	13.0	-4.0
170	15.0	-4.0
171	17.0	-4.0
172	-18.0	-3.0
173	-16.0	-3.0
174	-14.0	-3.0
175	-12.0	-3.0
176	-10.0	-3.0
177	-8.0	-3.0
178	-6.0	-3.0
179	-4.0	-3.0
180	-2.0	-3.0
181	0.0	-3.0
182	2.0	-3.0
183	4.0	-3.0
184	6.0	-3.0
185	8.0	-3.0
186	10.0	-3.0
187	12.0	-3.0
188	14.0	-3.0
189	16.0	-3.0
190	18.0	-3.0
191	-19.0	-2.0
192	-17.0	-2.0
193	-15.0	-2.0
194	-13.0	-2.0
195	-11.0	-2.0
196	-9.0	-2.0
197	-7.0	-2.0
198	-5.0	-2.0
199	-3.0	-2.0
200	-1.0	-2.0
201	1.0	-2.0
202	3.0	-2.0
203	5.0	-2.0
204	7.0	-2.0
205	9.0	-2.0
206	11.0	-2.0
207	13.0	-2.0
208	15.0	-2.0
209	17.0	-2.0
210	19.0	-2.0
211	-20.0	-1.0
212	-18.0	-1.0
213	-16.0	-1.0
214	-14.0	-1.0
215	-12.0	-1.0
216	-10.0	-1.0
217	-8.0	-1.0
218	-6.0	-1.0
219	-4.0	-1.0
220	-2.0	-1.0
221	0.0	-1.0
222	2.0	-1.0
223	4.0	-1.0
224	6.0	-1.0
225	8.0	-1.0
226	10.0	-1.0
227	12.0	-1.0
228	14.0	-1.0
229	16.0	-1.0
230	18.0	-1.0
231	20.0	-1.0
232	-21.0	0.0
233	-19.0	0.0
234	-17.0	0.0
235	-15.0	0.0
236	-13.0	0.0
237	-11.0	0.0
238	-9.0	0.0
239	-7.0	0.0
240	-5.0	0.0
241	-3.0	0.0
242	-1.0	0.0
243	1.0	0.0
244	3.0	0.0
245	5.0	0.0
246	7.0	0.0
247	9.0	0.0
248	11.0	0.0
249	13.0	0.0
250	15.0	0.0
251	17.0	0.0
252	19.0	0.0
253	21.0	0.0
254	-20.0	1.0
255	-18.0	1.0
256	-16.0	1.0
257	-14.0	1.0
258	-12.0	1.0
259	-10.0	1.0
260	-8.0	1.0
261	-6.0	1.0
262	-4.0	1.0
263	-2.0	1.0
264	0.0	1.0
265	2.0	1.0
266	4.0	1.0
267	6.0	1.0
268	8.0	1.0
269	10.0	1.0
270	12.0	1.0
271	14.0	1.0
272	16.0	1.0
273	18.0	1.0
274	20.0	1.0
275	-19.0	2.0
276	-17.0	2.0
277	-15.0	2.0
278	-13.0	2.0
279	-11.0	2.0
280	-9.0	2.0
281	-7.0	2.0
282	-5.0	2.0
283	-3.0	2.0
284	-1.0	2.0
285	1.0	2.0
286	3.0	2.0
287	5.0	2.0
288	7.0	2.0
289	9.0	2.0
290	11.0	2.0
291	13.0	2.0
292	15.0	2.0
293	17.0	2.0
294	19.0	2.0
295	-18.0	3.0
296	-16.0	3.0
297	-14.0	3.0
298	-12.0	3.0
299	-10.0	3.0
300	-8.0	3.0
301	-6.0	3.0
302	-4.0	3.0
303	-2.0	3.0
304	0.0	3.0
305	2.0	3.0
306	4.0	3.0
307	6.0	3.0
308	8.0	3.0
309	10.0	3.0
310	12.0	3.0
311	14.0	3.0
312	16.0	3.0
313	18.0	3.0
314	-17.0	4.0
315	-15.0	4.0
316	-13.0	4.0
317	-11.0	4.0
318	-9.0	4.0
319	-7.0	4.0
320	-5.0	4.0
321	-3.0	4.0
322	-1.0	4.0
323	1.0	4.0
324	3.0	4.0
325	5.0	4.0
326	7.0	4.0
327	9.0	4.0
328	11.0	4.0
329	13.0	4.0
330	15.0	4.0
331	17.0	4.0
332	-16.0	5.0
333	-14.0	5.0
334	-12.0	5.0
335	-10.0	5.0
336	-8.0	5.0
337	-6.0	5.0
338	-4.0	5.0
339	-2.0	5.0
340	0.0	5.0
341	2.0	5.0
342	4.0	5.0
343	6.0	5.0
344	8.0	5.0
345	10.0	5.0
346	12.0	5.0
347	14.0	5.0
348	16.0	5.0
349	-15.0	6.0
350	-13.0	6.0
351	-11.0	6.0
352	-9.0	6.0
353	-7.0	6.0
354	-5.0	6.0
355	-3.0	6.0
356	-1.0	6.0
357	1.0	6.0
358	3.0	6.0
359	5.0	6.0
360	7.0	6.0
361	9.0	6.0
362	11.0	6.0
363	13.0	6.0
364	15.0	6.0
365	-14.0	7.0
366	-12.0	7.0
367	-10.0	7.0
368	-8.0	7.0
369	-6.0	7.0
370	-4.0	7.0
371	-2.0	7.0
372	0.0	7.0
373	2.0	7.0
374	4.0	7.0
375	6.0	7.0
376	8.0	7.0
377	10.0	7.0
378	12.0	7.0
379	14.0	7.0
380	-13.0	8.0
381	-11.0	8.0
382	-9.0	8.0
383	-7.0	8.0
384	-5.0	8.0
385	-3.0	8.0
386	-1.0	8.0
387	1.0	8.0
388	3.0	8.0
389	5.0	8.0
390	7.0	8.0
391	9.0	8.0
392	11.0	8.0
393	13.0	8.0
394	-12.0	9.0
395	-10.0	9.0
396	-8.0	9.0
397	-6.0	9.0
398	-4.0	9.0
399	-2.0	9.0
400	0.0	9.0
401	2.0	9.0
402	4.0	9.0
403	6.0	9.0
404	8.0	9.0
405	10.0	9.0
406	12.0	9.0
407	-11.0	10.0
408	-9.0	10.0
409	-7.0	10.0
410	-5.0	10.0
411	-3.0	10.0
412	-1.0	10.0
413	1.0	10.0
414	3.0	10.0
415	5.0	10.0
416	7.0	10.0
417	9.0	10.0
418	11.0	10.0
419	-10.0	11.0
420	-8.0	11.0
421	-6.0	11.0
422	-4.0	11.0
423	-2.0	11.0
424	0.0	11.0
425	2.0	11.0
426	4.0	11.0
427	6.0	11.0
428	8.0	11.0
429	10.0	11.0
430	-9.0	12.0
431	-7.0	12.0
432	-5.0	12.0
433	-3.0	12.0
434	-1.0	12.0
435	1.0	12.0
436	3.0	12.0
437	5.0	12.0
438	7.0	12.0
439	9.0	12.0
440	-8.0	13.0
441	-6.0	13.0
442	-4.0	13.0
443	-2.0	13.0
444	0.0	13.0
445	2.0	13.0
446	4.0	13.0
447	6.0	13.0
448	8.0	13.0
449	-7.0	14.0
450	-5.0	14.0
451	-3.0	14.0
452	-1.0	14.0
453	1.0	14.0
454	3.0	14.0
455	5.0	14.0
456	7.0	14.0
457	-6.0	15.0
458	-4.0	15.0
459	-2.0	15.0
460	0.0	15.0
461	2.0	15.0
462	4.0	15.0
463	6.0	15.0
464	-5.0	16.0
465	-3.0	16.0
466	-1.0	16.0
467	1.0	16.0
468	3.0	16.0
469	5.0	16.0
470	-4.0	17.0
471	-2.0	17.0
472	0.0	17.0
473	2.0	17.0
474	4.0	17.0
475	-3.0	18.0
476	-1.0	18.0
477	1.0	18.0
478	3.0	18.0
479	-2.0	19.0
480	0.0	19.0
481	2.0	19.0
482	-1.0	20.0
483	1.0	20.0
484	0.0	21.0
DEMAND_SECTION
1	0
2	300
3	300
4	180
5	300
6	180
7	128
8	180
9	180
10	128
11	100
12	128
13	180
14	128
15	100
16	81
17	100
18	128
19	128
20	100
21	81
22	69
23	81
24	100
25	128
26	100
27	81
28	69
29	60
30	69
31	81
32	100
33	100
34	81
35	69
36	60
37	52
38	60
39	69
40	81
41	100
42	81
43	69
44	60
45	52
46	47
47	52
48	60
49	69
50	81
51	81
52	69
53	60
54	52
55	47
56	42
57	47
58	52
59	60
60	69
61	81
62	69
63	60
64	52
65	47
66	42
67	39
68	42
69	47
70	52
71	60
72	69
73	69
74	60
75	52
76	47
77	42
78	39
79	36
80	39
81	42
82	47
83	52
84	60
85	69
86	60
87	52
88	47
89	42
90	39
91	36
92	33
93	36
94	39
95	42
96	47
97	52
98	60
99	60
100	52
101	47
102	42
103	39
104	36
105	33
106	31
107	33
108	36
109	39
110	42
111	47
112	52
113	60
114	52
115	47
116	42
117	39
118	36
119	33
120	31
121	29
122	31
123	33
124	36
125	39
126	42
127	47
128	52
129	52
130	47
131	42
132	39
133	36
134	33
135	31
136	29
137	27
138	29
139	31
140	33
141	36
142	39
143	42
144	47
145	52
146	47
147	42
148	39
149	36
150	33
151	31
152	29
153	27
154	25
155	27
156	29
157	31
158	33
159	36
160	39
161	42
162	47
163	47
164	42
165	39
166	36
167	33
168	31
169	29
170	27
171	25
172	24
173	25
174	27
175	29
176	31
177	33
178	36
179	39
180	42
181	47
182	42
183	39
184	36
185	33
186	31
187	29
188	27
189	25
190	24
191	23
192	24
193	25
194	27
195	29
196	31
197	33
198	36
199	39
200	42
201	42
202	39
203	36
204	33
205	31
206	29
207	27
208	25
209	24
210	23
211	21
212	23
213	24
214	25
215	27
216	29
217	31
218	33
219	36
220	39
221	42
222	39
223	36
224	33
225	31
226	29
227	27
228	25
229	24
230	23
231	21
232	20
233	21
234	23
235	24
236	25
237	27
238	29
239	31
240	33
241	36
242	39
243	39
244	36
245	33
246	31
247	29
248	27
249	25
250	24
251	23
252	21
253	20
254	20
255	21
256	23
257	24
258	25
259	27
260	29
261	31
262	33
263	36
264	39
265	36
266	33
267	31
268	29
269	27
270	25
271	24
272	23
273	21
274	20
275	20
276	21
277	23
278	24
279	25
280	27
281	29
282	31
283	33
284	36
285	36
286	33
287	31
288	29
289	27
290	25
291	24
292	23
293	21
294	20
295	20
296	21
297	23
298	24
299	25
300	27
301	29
302	31
303	33
304	36
305	33
306	31
307	29
308	27
309	25
310	24
311	23
312	21
313	20
314	20
315	21
316	23
317	24
318	25
319	27
320	29
321	31
322	33
323	33
324	31
325	29
326	27
327	25
328	24
329	23
330	21
331	20
332	20
333	21
334	23
335	24
336	25
337	27
338	29
339	31
340	33
341	31
342	29
343	27
344	25
345	24
346	23
347	21
348	20
349	20
350	21
351	23
352	24
353	25
354	27
355	29
356	31
357	31
358	29
359	27
360	25
361	24
362	23
363	21
364	20
365	20
366	21
367	23
368	24
369	25
370	27
371	29
372	31
373	29
374	27
375	25
376	24
377	23
378	21
379	20
380	20
381	21
382	23
383	24
384	25
385	27
386	29
387	29
388	27
389	25
390	24
391	23
392	21
393	20
394	20
395	21
396	23
397	24
398	25
399	27
400	29
401	27
402	25
403	24
404	23
405	21
406	20
407	20
408	21
409	23
410	24
411	25
412	27
413	27
414	25
415	24
416	23
417	21
418	20
419	20
420	21
421	23
422	24
423	25
424	27
425	25
426	24
427	23
428	21
429	20
430	20
431	21
432	23
433	24
434	25
435	25
436	24
437	23
438	21
439	20
440	20
441	21
442	23
443	24
444	25
445	24
446	23
447	21
448	20
449	20
450	21
451	23
452	24
453	24
454	23
455	21
456	20
457	20
458	21
459	23
460	24
461	23
462	21
463	20
464	20
465	21
466	23
467	23
468	21
469	20
470	20
471	21
472	23
473	21
474	20
475	20
476	21
477	21
478	20
479	20
480	21
481	20
482	20
483	20
484	20
DEPOT_SECTION
1
-1
EOF
